p cnf 211 927
-1 -33 0
-2 -33 0
1 2 33 0
1 2 -34 0
-1 -2 -34 0
-1 2 34 0
1 -2 34 0
33 -35 0
-3 -35 0
3 -33 35 0
3 -33 -36 0
-3 33 -36 0
3 33 36 0
-3 -33 36 0
35 -37 0
-4 -37 0
4 -35 37 0
4 -35 -38 0
-4 35 -38 0
4 35 38 0
-4 -35 38 0
37 -39 0
-5 -39 0
5 -37 39 0
5 -37 -40 0
-5 37 -40 0
5 37 40 0
-5 -37 40 0
39 -41 0
-6 -41 0
6 -39 41 0
6 -39 -42 0
-6 39 -42 0
6 39 42 0
-6 -39 42 0
41 -43 0
-7 -43 0
7 -41 43 0
7 -41 -44 0
-7 41 -44 0
7 41 44 0
-7 -41 44 0
43 -45 0
-8 -45 0
8 -43 45 0
8 -43 -46 0
-8 43 -46 0
8 43 46 0
-8 -43 46 0
2 -47 0
1 -47 0
-1 -2 47 0
-1 -2 -48 0
1 2 -48 0
1 -2 48 0
-1 2 48 0
-2 -3 49 0
-3 -47 49 0
-2 -47 49 0
2 3 -49 0
3 47 -49 0
2 47 -49 0
3 -49 -50 0
2 -49 -50 0
47 -49 -50 0
-3 49 50 0
-2 49 50 0
-47 49 50 0
-2 -3 -47 50 0
2 3 47 -50 0
-3 -4 51 0
-4 -49 51 0
-3 -49 51 0
3 4 -51 0
4 49 -51 0
3 49 -51 0
4 -51 -52 0
3 -51 -52 0
49 -51 -52 0
-4 51 52 0
-3 51 52 0
-49 51 52 0
-3 -4 -49 52 0
3 4 49 -52 0
-4 -5 53 0
-5 -51 53 0
-4 -51 53 0
4 5 -53 0
5 51 -53 0
4 51 -53 0
5 -53 -54 0
4 -53 -54 0
51 -53 -54 0
-5 53 54 0
-4 53 54 0
-51 53 54 0
-4 -5 -51 54 0
4 5 51 -54 0
-5 -6 55 0
-6 -53 55 0
-5 -53 55 0
5 6 -55 0
6 53 -55 0
5 53 -55 0
6 -55 -56 0
5 -55 -56 0
53 -55 -56 0
-6 55 56 0
-5 55 56 0
-53 55 56 0
-5 -6 -53 56 0
5 6 53 -56 0
-6 -7 57 0
-7 -55 57 0
-6 -55 57 0
6 7 -57 0
7 55 -57 0
6 55 -57 0
7 -57 -58 0
6 -57 -58 0
55 -57 -58 0
-7 57 58 0
-6 57 58 0
-55 57 58 0
-6 -7 -55 58 0
6 7 55 -58 0
-7 -8 59 0
-8 -57 59 0
-7 -57 59 0
7 8 -59 0
8 57 -59 0
7 57 -59 0
8 -59 -60 0
7 -59 -60 0
57 -59 -60 0
-8 59 60 0
-7 59 60 0
-57 59 60 0
-7 -8 -57 60 0
7 8 57 -60 0
8 -61 0
59 -61 0
-8 -59 61 0
-8 -59 -62 0
8 59 -62 0
-8 59 62 0
8 -59 62 0
50 -63 0
1 -63 0
-1 -50 63 0
-1 -50 -64 0
1 50 -64 0
1 -50 64 0
-1 50 64 0
-2 -52 65 0
-52 -63 65 0
-2 -63 65 0
2 52 -65 0
52 63 -65 0
2 63 -65 0
52 -65 -66 0
2 -65 -66 0
63 -65 -66 0
-52 65 66 0
-2 65 66 0
-63 65 66 0
-2 -52 -63 66 0
2 52 63 -66 0
-3 -54 67 0
-54 -65 67 0
-3 -65 67 0
3 54 -67 0
54 65 -67 0
3 65 -67 0
54 -67 -68 0
3 -67 -68 0
65 -67 -68 0
-54 67 68 0
-3 67 68 0
-65 67 68 0
-3 -54 -65 68 0
3 54 65 -68 0
-4 -56 69 0
-56 -67 69 0
-4 -67 69 0
4 56 -69 0
56 67 -69 0
4 67 -69 0
56 -69 -70 0
4 -69 -70 0
67 -69 -70 0
-56 69 70 0
-4 69 70 0
-67 69 70 0
-4 -56 -67 70 0
4 56 67 -70 0
-5 -58 71 0
-58 -69 71 0
-5 -69 71 0
5 58 -71 0
58 69 -71 0
5 69 -71 0
58 -71 -72 0
5 -71 -72 0
69 -71 -72 0
-58 71 72 0
-5 71 72 0
-69 71 72 0
-5 -58 -69 72 0
5 58 69 -72 0
-6 -60 73 0
-60 -71 73 0
-6 -71 73 0
6 60 -73 0
60 71 -73 0
6 71 -73 0
60 -73 -74 0
6 -73 -74 0
71 -73 -74 0
-60 73 74 0
-6 73 74 0
-71 73 74 0
-6 -60 -71 74 0
6 60 71 -74 0
-7 -62 75 0
-62 -73 75 0
-7 -73 75 0
7 62 -75 0
62 73 -75 0
7 73 -75 0
62 -75 -76 0
7 -75 -76 0
73 -75 -76 0
-62 75 76 0
-7 75 76 0
-73 75 76 0
-7 -62 -73 76 0
7 62 73 -76 0
-8 -61 77 0
-61 -75 77 0
-8 -75 77 0
8 61 -77 0
61 75 -77 0
8 75 -77 0
61 -77 -78 0
8 -77 -78 0
75 -77 -78 0
-61 77 78 0
-8 77 78 0
-75 77 78 0
-8 -61 -75 78 0
8 61 75 -78 0
-1 -79 0
-48 -79 0
1 48 79 0
1 48 -80 0
-1 -48 -80 0
-1 48 80 0
1 -48 80 0
79 -81 0
-64 -81 0
64 -79 81 0
64 -79 -82 0
-64 79 -82 0
64 79 82 0
-64 -79 82 0
81 -83 0
-66 -83 0
66 -81 83 0
66 -81 -84 0
-66 81 -84 0
66 81 84 0
-66 -81 84 0
83 -85 0
-68 -85 0
68 -83 85 0
68 -83 -86 0
-68 83 -86 0
68 83 86 0
-68 -83 86 0
85 -87 0
-70 -87 0
70 -85 87 0
70 -85 -88 0
-70 85 -88 0
70 85 88 0
-70 -85 88 0
87 -89 0
-72 -89 0
72 -87 89 0
72 -87 -90 0
-72 87 -90 0
72 87 90 0
-72 -87 90 0
89 -91 0
-74 -91 0
74 -89 91 0
74 -89 -92 0
-74 89 -92 0
74 89 92 0
-74 -89 92 0
91 -93 0
-76 -93 0
76 -91 93 0
76 -91 -94 0
-76 91 -94 0
76 91 94 0
-76 -91 94 0
93 -95 0
-78 -95 0
78 -93 95 0
78 -93 -96 0
-78 93 -96 0
78 93 96 0
-78 -93 96 0
95 -97 0
-77 -97 0
77 -95 97 0
77 -95 -98 0
-77 95 -98 0
77 95 98 0
-77 -95 98 0
-9 -99 0
-10 -99 0
9 10 99 0
9 10 -100 0
-9 -10 -100 0
-9 10 100 0
9 -10 100 0
99 -101 0
-11 -101 0
11 -99 101 0
11 -99 -102 0
-11 99 -102 0
11 99 102 0
-11 -99 102 0
101 -103 0
-12 -103 0
12 -101 103 0
12 -101 -104 0
-12 101 -104 0
12 101 104 0
-12 -101 104 0
103 -105 0
-13 -105 0
13 -103 105 0
13 -103 -106 0
-13 103 -106 0
13 103 106 0
-13 -103 106 0
105 -107 0
-14 -107 0
14 -105 107 0
14 -105 -108 0
-14 105 -108 0
14 105 108 0
-14 -105 108 0
107 -109 0
-15 -109 0
15 -107 109 0
15 -107 -110 0
-15 107 -110 0
15 107 110 0
-15 -107 110 0
109 -111 0
-16 -111 0
16 -109 111 0
16 -109 -112 0
-16 109 -112 0
16 109 112 0
-16 -109 112 0
10 -113 0
9 -113 0
-9 -10 113 0
-9 -10 -114 0
9 10 -114 0
9 -10 114 0
-9 10 114 0
-10 -11 115 0
-11 -113 115 0
-10 -113 115 0
10 11 -115 0
11 113 -115 0
10 113 -115 0
11 -115 -116 0
10 -115 -116 0
113 -115 -116 0
-11 115 116 0
-10 115 116 0
-113 115 116 0
-10 -11 -113 116 0
10 11 113 -116 0
-11 -12 117 0
-12 -115 117 0
-11 -115 117 0
11 12 -117 0
12 115 -117 0
11 115 -117 0
12 -117 -118 0
11 -117 -118 0
115 -117 -118 0
-12 117 118 0
-11 117 118 0
-115 117 118 0
-11 -12 -115 118 0
11 12 115 -118 0
-12 -13 119 0
-13 -117 119 0
-12 -117 119 0
12 13 -119 0
13 117 -119 0
12 117 -119 0
13 -119 -120 0
12 -119 -120 0
117 -119 -120 0
-13 119 120 0
-12 119 120 0
-117 119 120 0
-12 -13 -117 120 0
12 13 117 -120 0
-13 -14 121 0
-14 -119 121 0
-13 -119 121 0
13 14 -121 0
14 119 -121 0
13 119 -121 0
14 -121 -122 0
13 -121 -122 0
119 -121 -122 0
-14 121 122 0
-13 121 122 0
-119 121 122 0
-13 -14 -119 122 0
13 14 119 -122 0
-14 -15 123 0
-15 -121 123 0
-14 -121 123 0
14 15 -123 0
15 121 -123 0
14 121 -123 0
15 -123 -124 0
14 -123 -124 0
121 -123 -124 0
-15 123 124 0
-14 123 124 0
-121 123 124 0
-14 -15 -121 124 0
14 15 121 -124 0
-15 -16 125 0
-16 -123 125 0
-15 -123 125 0
15 16 -125 0
16 123 -125 0
15 123 -125 0
16 -125 -126 0
15 -125 -126 0
123 -125 -126 0
-16 125 126 0
-15 125 126 0
-123 125 126 0
-15 -16 -123 126 0
15 16 123 -126 0
16 -127 0
125 -127 0
-16 -125 127 0
-16 -125 -128 0
16 125 -128 0
-16 125 128 0
16 -125 128 0
120 -129 0
9 -129 0
-9 -120 129 0
-9 -120 -130 0
9 120 -130 0
9 -120 130 0
-9 120 130 0
-10 -122 131 0
-122 -129 131 0
-10 -129 131 0
10 122 -131 0
122 129 -131 0
10 129 -131 0
122 -131 -132 0
10 -131 -132 0
129 -131 -132 0
-122 131 132 0
-10 131 132 0
-129 131 132 0
-10 -122 -129 132 0
10 122 129 -132 0
-11 -124 133 0
-124 -131 133 0
-11 -131 133 0
11 124 -133 0
124 131 -133 0
11 131 -133 0
124 -133 -134 0
11 -133 -134 0
131 -133 -134 0
-124 133 134 0
-11 133 134 0
-131 133 134 0
-11 -124 -131 134 0
11 124 131 -134 0
-12 -126 135 0
-126 -133 135 0
-12 -133 135 0
12 126 -135 0
126 133 -135 0
12 133 -135 0
126 -135 -136 0
12 -135 -136 0
133 -135 -136 0
-126 135 136 0
-12 135 136 0
-133 135 136 0
-12 -126 -133 136 0
12 126 133 -136 0
-13 -128 137 0
-128 -135 137 0
-13 -135 137 0
13 128 -137 0
128 135 -137 0
13 135 -137 0
128 -137 -138 0
13 -137 -138 0
135 -137 -138 0
-128 137 138 0
-13 137 138 0
-135 137 138 0
-13 -128 -135 138 0
13 128 135 -138 0
-14 -127 139 0
-127 -137 139 0
-14 -137 139 0
14 127 -139 0
127 137 -139 0
14 137 -139 0
127 -139 -140 0
14 -139 -140 0
137 -139 -140 0
-127 139 140 0
-14 139 140 0
-137 139 140 0
-14 -127 -137 140 0
14 127 137 -140 0
15 -141 0
139 -141 0
-15 -139 141 0
-15 -139 -142 0
15 139 -142 0
-15 139 142 0
15 -139 142 0
16 -143 0
141 -143 0
-16 -141 143 0
-16 -141 -144 0
16 141 -144 0
-16 141 144 0
16 -141 144 0
132 -145 0
9 -145 0
-9 -132 145 0
-9 -132 -146 0
9 132 -146 0
9 -132 146 0
-9 132 146 0
-10 -134 147 0
-134 -145 147 0
-10 -145 147 0
10 134 -147 0
134 145 -147 0
10 145 -147 0
134 -147 -148 0
10 -147 -148 0
145 -147 -148 0
-134 147 148 0
-10 147 148 0
-145 147 148 0
-10 -134 -145 148 0
10 134 145 -148 0
-11 -136 149 0
-136 -147 149 0
-11 -147 149 0
11 136 -149 0
136 147 -149 0
11 147 -149 0
136 -149 -150 0
11 -149 -150 0
147 -149 -150 0
-136 149 150 0
-11 149 150 0
-147 149 150 0
-11 -136 -147 150 0
11 136 147 -150 0
-12 -138 151 0
-138 -149 151 0
-12 -149 151 0
12 138 -151 0
138 149 -151 0
12 149 -151 0
138 -151 -152 0
12 -151 -152 0
149 -151 -152 0
-138 151 152 0
-12 151 152 0
-149 151 152 0
-12 -138 -149 152 0
12 138 149 -152 0
-13 -140 153 0
-140 -151 153 0
-13 -151 153 0
13 140 -153 0
140 151 -153 0
13 151 -153 0
140 -153 -154 0
13 -153 -154 0
151 -153 -154 0
-140 153 154 0
-13 153 154 0
-151 153 154 0
-13 -140 -151 154 0
13 140 151 -154 0
-14 -142 155 0
-142 -153 155 0
-14 -153 155 0
14 142 -155 0
142 153 -155 0
14 153 -155 0
142 -155 -156 0
14 -155 -156 0
153 -155 -156 0
-142 155 156 0
-14 155 156 0
-153 155 156 0
-14 -142 -153 156 0
14 142 153 -156 0
-15 -144 157 0
-144 -155 157 0
-15 -155 157 0
15 144 -157 0
144 155 -157 0
15 155 -157 0
144 -157 -158 0
15 -157 -158 0
155 -157 -158 0
-144 157 158 0
-15 157 158 0
-155 157 158 0
-15 -144 -155 158 0
15 144 155 -158 0
-16 -143 159 0
-143 -157 159 0
-16 -157 159 0
16 143 -159 0
143 157 -159 0
16 157 -159 0
143 -159 -160 0
16 -159 -160 0
157 -159 -160 0
-143 159 160 0
-16 159 160 0
-157 159 160 0
-16 -143 -157 160 0
16 143 157 -160 0
-9 -161 0
-114 -161 0
9 114 161 0
9 114 -162 0
-9 -114 -162 0
-9 114 162 0
9 -114 162 0
161 -163 0
-116 -163 0
116 -161 163 0
116 -161 -164 0
-116 161 -164 0
116 161 164 0
-116 -161 164 0
163 -165 0
-118 -165 0
118 -163 165 0
118 -163 -166 0
-118 163 -166 0
118 163 166 0
-118 -163 166 0
165 -167 0
-130 -167 0
130 -165 167 0
130 -165 -168 0
-130 165 -168 0
130 165 168 0
-130 -165 168 0
167 -169 0
-146 -169 0
146 -167 169 0
146 -167 -170 0
-146 167 -170 0
146 167 170 0
-146 -167 170 0
169 -171 0
-148 -171 0
148 -169 171 0
148 -169 -172 0
-148 169 -172 0
148 169 172 0
-148 -169 172 0
171 -173 0
-150 -173 0
150 -171 173 0
150 -171 -174 0
-150 171 -174 0
150 171 174 0
-150 -171 174 0
173 -175 0
-152 -175 0
152 -173 175 0
152 -173 -176 0
-152 173 -176 0
152 173 176 0
-152 -173 176 0
175 -177 0
-154 -177 0
154 -175 177 0
154 -175 -178 0
-154 175 -178 0
154 175 178 0
-154 -175 178 0
177 -179 0
-156 -179 0
156 -177 179 0
156 -177 -180 0
-156 177 -180 0
156 177 180 0
-156 -177 180 0
179 -181 0
-158 -181 0
158 -179 181 0
158 -179 -182 0
-158 179 -182 0
158 179 182 0
-158 -179 182 0
181 -183 0
-160 -183 0
160 -181 183 0
160 -181 -184 0
-160 181 -184 0
160 181 184 0
-160 -181 184 0
183 -185 0
-159 -185 0
159 -183 185 0
159 -183 -186 0
-159 183 -186 0
159 183 186 0
-159 -183 186 0
1 -187 0
116 -187 0
-1 -116 187 0
-1 -116 -188 0
1 116 -188 0
-1 116 188 0
1 -116 188 0
-48 -118 189 0
-48 -187 189 0
-118 -187 189 0
48 118 -189 0
48 187 -189 0
118 187 -189 0
48 -189 -190 0
118 -189 -190 0
187 -189 -190 0
-48 189 190 0
-118 189 190 0
-187 189 190 0
-48 -118 -187 190 0
48 118 187 -190 0
-64 -130 191 0
-64 -189 191 0
-130 -189 191 0
64 130 -191 0
64 189 -191 0
130 189 -191 0
64 -191 -192 0
130 -191 -192 0
189 -191 -192 0
-64 191 192 0
-130 191 192 0
-189 191 192 0
-64 -130 -189 192 0
64 130 189 -192 0
-66 -146 193 0
-66 -191 193 0
-146 -191 193 0
66 146 -193 0
66 191 -193 0
146 191 -193 0
66 -193 -194 0
146 -193 -194 0
191 -193 -194 0
-66 193 194 0
-146 193 194 0
-191 193 194 0
-66 -146 -191 194 0
66 146 191 -194 0
-68 -148 195 0
-68 -193 195 0
-148 -193 195 0
68 148 -195 0
68 193 -195 0
148 193 -195 0
68 -195 -196 0
148 -195 -196 0
193 -195 -196 0
-68 195 196 0
-148 195 196 0
-193 195 196 0
-68 -148 -193 196 0
68 148 193 -196 0
-70 -150 197 0
-70 -195 197 0
-150 -195 197 0
70 150 -197 0
70 195 -197 0
150 195 -197 0
70 -197 -198 0
150 -197 -198 0
195 -197 -198 0
-70 197 198 0
-150 197 198 0
-195 197 198 0
-70 -150 -195 198 0
70 150 195 -198 0
-72 -152 199 0
-72 -197 199 0
-152 -197 199 0
72 152 -199 0
72 197 -199 0
152 197 -199 0
72 -199 -200 0
152 -199 -200 0
197 -199 -200 0
-72 199 200 0
-152 199 200 0
-197 199 200 0
-72 -152 -197 200 0
72 152 197 -200 0
-74 -154 201 0
-74 -199 201 0
-154 -199 201 0
74 154 -201 0
74 199 -201 0
154 199 -201 0
74 -201 -202 0
154 -201 -202 0
199 -201 -202 0
-74 201 202 0
-154 201 202 0
-199 201 202 0
-74 -154 -199 202 0
74 154 199 -202 0
-76 -156 203 0
-76 -201 203 0
-156 -201 203 0
76 156 -203 0
76 201 -203 0
156 201 -203 0
76 -203 -204 0
156 -203 -204 0
201 -203 -204 0
-76 203 204 0
-156 203 204 0
-201 203 204 0
-76 -156 -201 204 0
76 156 201 -204 0
-78 -158 205 0
-78 -203 205 0
-158 -203 205 0
78 158 -205 0
78 203 -205 0
158 203 -205 0
78 -205 -206 0
158 -205 -206 0
203 -205 -206 0
-78 205 206 0
-158 205 206 0
-203 205 206 0
-78 -158 -203 206 0
78 158 203 -206 0
-77 -160 207 0
-77 -205 207 0
-160 -205 207 0
77 160 -207 0
77 205 -207 0
160 205 -207 0
77 -207 -208 0
160 -207 -208 0
205 -207 -208 0
-77 207 208 0
-160 207 208 0
-205 207 208 0
-77 -160 -205 208 0
77 160 205 -208 0
159 -209 0
207 -209 0
-159 -207 209 0
-159 -207 -210 0
159 207 -210 0
-159 207 210 0
159 -207 210 0
-9 -211 0
114 -211 0
-188 -211 0
-190 -211 0
192 -211 0
194 -211 0
196 -211 0
-198 -211 0
-200 -211 0
-202 -211 0
-204 -211 0
-206 -211 0
-208 -211 0
-209 -211 0
-210 -211 0
9 -114 188 190 -192 -194 -196 198 200 202 204 206 208 209 210 211 0
211 0
c main::$tmp::return_value_nondet_char!0@1#1 17 18 19 20 21 22 23 24
c symex::nondet1 9 10 11 12 13 14 15 16
c symex::nondet0 1 2 3 4 5 6 7 8
c main::$tmp::return_value_nondet_char$0!0@1#2 9 10 11 12 13 14 15 16
c __CPROVER_rounding_mode!0#1 FALSE FALSE FALSE FALSE FALSE FALSE FALSE FALSE FALSE FALSE FALSE FALSE FALSE FALSE FALSE FALSE FALSE FALSE FALSE FALSE FALSE FALSE FALSE FALSE FALSE FALSE FALSE FALSE FALSE FALSE FALSE FALSE
c main::$tmp::return_value_nondet_char$0!0@1#1 25 26 27 28 29 30 31 32
c __CPROVER_memory_leak#1 FALSE FALSE FALSE FALSE FALSE FALSE FALSE FALSE FALSE FALSE FALSE FALSE FALSE FALSE FALSE FALSE FALSE FALSE FALSE FALSE FALSE FALSE FALSE FALSE FALSE FALSE FALSE FALSE FALSE FALSE FALSE FALSE FALSE FALSE FALSE FALSE FALSE FALSE FALSE FALSE FALSE FALSE FALSE FALSE FALSE FALSE FALSE FALSE FALSE FALSE FALSE FALSE FALSE FALSE FALSE FALSE FALSE FALSE FALSE FALSE FALSE FALSE FALSE FALSE
c __CPROVER_max_malloc_size#1 FALSE FALSE FALSE FALSE FALSE FALSE FALSE FALSE FALSE FALSE FALSE FALSE FALSE FALSE FALSE FALSE FALSE FALSE FALSE FALSE FALSE FALSE FALSE FALSE FALSE FALSE FALSE FALSE FALSE FALSE FALSE FALSE FALSE FALSE FALSE FALSE FALSE FALSE FALSE FALSE FALSE FALSE FALSE FALSE FALSE FALSE FALSE FALSE FALSE FALSE FALSE FALSE FALSE FALSE FALSE TRUE FALSE FALSE FALSE FALSE FALSE FALSE FALSE FALSE
c __CPROVER_deallocated#1 FALSE FALSE FALSE FALSE FALSE FALSE FALSE FALSE FALSE FALSE FALSE FALSE FALSE FALSE FALSE FALSE FALSE FALSE FALSE FALSE FALSE FALSE FALSE FALSE FALSE FALSE FALSE FALSE FALSE FALSE FALSE FALSE FALSE FALSE FALSE FALSE FALSE FALSE FALSE FALSE FALSE FALSE FALSE FALSE FALSE FALSE FALSE FALSE FALSE FALSE FALSE FALSE FALSE FALSE FALSE FALSE FALSE FALSE FALSE FALSE FALSE FALSE FALSE FALSE
c main::$tmp::return_value_nondet_char!0@1#2 1 2 3 4 5 6 7 8
c __CPROVER_dead_object#1 FALSE FALSE FALSE FALSE FALSE FALSE FALSE FALSE FALSE FALSE FALSE FALSE FALSE FALSE FALSE FALSE FALSE FALSE FALSE FALSE FALSE FALSE FALSE FALSE FALSE FALSE FALSE FALSE FALSE FALSE FALSE FALSE FALSE FALSE FALSE FALSE FALSE FALSE FALSE FALSE FALSE FALSE FALSE FALSE FALSE FALSE FALSE FALSE FALSE FALSE FALSE FALSE FALSE FALSE FALSE FALSE FALSE FALSE FALSE FALSE FALSE FALSE FALSE FALSE
